Instance Name : rc108
Authors       : Shobb<shobb@narod.ru>
Date          : 2018-jun-12
Reference     : http://shobb.narod.ru/vrppd.html
Solution
Route 1 : 002 006 007 008 046 004 045 005 003 001 100
Route 2 : 071 067 062 050 063 085 084 092 056 091 080
Route 3 : 069 098 088 053 078 073 079 060 055 070 068
Route 4 : 012 014 047 017 016 015 013 009 011 010
Route 5 : 095 033 030 028 026 027 029 031 034 032
Route 6 : 041 042 044 043 040 038 037 035 036 039
Route 7 : 082 099 052 086 087 059 097 075 058 074
Route 8 : 065 083 057 024 022 049 021 023 025 077
Route 9 : 064 051 076 089 018 048 019 020 066
Route 10 : 090 061 081 096 094 093 072 054
